Default LOCALE: LC_CTYPE=en_US.UTF-8;LC_NUMERIC=it_IT.UTF-8;LC_TIME=en_US.UTF-8;LC_COLLATE=en_US.UTF-8;LC_MONETARY=it_IT.UTF-8;LC_MESSAGES=en_US.UTF-8;LC_PAPER=it_IT.UTF-8;LC_NAME=it_IT.UTF-8;LC_ADDRESS=it_IT.UTF-8;LC_TELEPHONE=it_IT.UTF-8;LC_MEASUREMENT=it_IT.UTF-8;LC_IDENTIFICATION=it_IT.UTF-8

<<< setup, at 0s, took 1,54878e+09s


<<< generate, at 0s, took 0,00412607s

CPXPARAM_TimeLimit                               30
Tried aggregator 2 times.
MIP Presolve eliminated 9 rows and 9 columns.
Aggregator did 10 substitutions.
Reduced MIP has 111 rows, 181 columns, and 614 nonzeros.
Reduced MIP has 90 binaries, 91 generals, 0 SOSs, and 0 indicators.
Presolve time = 0,00 sec. (0,61 ticks)
Found incumbent of value 75,271170 after 0,00 sec. (1,23 ticks)
Probing fixed 7 vars, tightened 0 bounds.
Probing time = 0,00 sec. (0,36 ticks)
Cover probing fixed 0 vars, tightened 63 bounds.
Tried aggregator 1 time.
MIP Presolve eliminated 10 rows and 16 columns.
MIP Presolve modified 112 coefficients.
Reduced MIP has 101 rows, 165 columns, and 565 nonzeros.
Reduced MIP has 83 binaries, 82 generals, 0 SOSs, and 0 indicators.
Presolve time = 0,00 sec. (0,67 ticks)
Probing time = 0,00 sec. (0,30 ticks)
Clique table members: 19.
MIP emphasis: balance optimality and feasibility.
MIP search method: dynamic search.
Parallel mode: deterministic, using up to 4 threads.
Root relaxation solution time = 0,00 sec. (0,98 ticks)

        Nodes                                         Cuts/
   Node  Left     Objective  IInf  Best Integer    Best Bound    ItCnt     Gap

*     0+    0                           75,2712        0,0000           100,00%
      0     0       21,5728    27       75,2712       21,5728      157   71,34%
      0     0       24,9597    35       75,2712      Cuts: 45      192   66,84%
      0     0       27,6366    34       75,2712      Cuts: 26      252   63,28%
      0     0       31,5988    32       75,2712      Cuts: 18      311   58,02%
      0     0       31,6085    38       75,2712      Cuts: 12      320   58,01%
      0     0       31,6424    44       75,2712      Cuts: 12      332   57,96%
      0     0       31,6438    39       75,2712       Cuts: 4      336   57,96%
      0     0       31,6438    39       75,2712   Flowcuts: 1      337   57,96%
*     0+    0                           31,6587       31,6438             0,05%
      0     0        cutoff             31,6587       31,6438      337    0,05%
Elapsed time = 0,11 sec. (46,04 ticks, tree = 0,01 MB, solutions = 2)

Cover cuts applied:  5
Implied bound cuts applied:  12
Flow cuts applied:  17
Zero-half cuts applied:  2
Lift and project cuts applied:  1

Root node processing (before b&c):
  Real time             =    0,11 sec. (46,05 ticks)
Parallel b&c, 4 threads:
  Real time             =    0,00 sec. (0,06 ticks)
  Sync time (average)   =    0,00 sec.
  Wait time (average)   =    0,00 sec.
                          ------------
Total (root+branch&cut) =    0,11 sec. (46,11 ticks)

<<< solve, at 0,4s, took 0,110386s


OBJECTIVE: 31.65872
01/29/2019 18:42:34 392
solving time ~= 112.143066406
Done
 [[0 3 0 0 0 0 0 0 0 0]
         [0 0 0 0 0 0 0 2 0 0]
         [0 0 0 7 0 0 0 0 0 0]
         [0 0 0 0 6 0 0 0 0 0]
         [0 0 0 0 0 5 0 0 0 0]
         [4 0 0 0 0 0 0 0 0 0]
         [0 0 8 0 0 0 0 0 0 0]
         [0 0 0 0 0 0 0 0 0 1]
         [0 0 0 0 0 0 9 0 0 0]
         [0 0 0 0 0 0 0 0 10 0]]

<<< post process, at 0,4s, took 0,000519991s

// solution (optimal) with objective 31.6587238622855
// Quality Incumbent solution:
// MILP objective                                 3,1658723862e+01
// MILP solution norm |x| (Total, Max)            6,50000e+01  1,00000e+01
// MILP solution error (Ax=b) (Total, Max)        0,00000e+00  0,00000e+00
// MILP x bound error (Total, Max)                0,00000e+00  0,00000e+00
// MILP x integrality error (Total, Max)          0,00000e+00  0,00000e+00
// MILP slack bound error (Total, Max)            0,00000e+00  0,00000e+00
// 

y = [[0
             1 0 0 0 0 0 0 0 0]
             [0 0 0 0 0 0 0 1 0 0]
             [0 0 0 1 0 0 0 0 0 0]
             [0 0 0 0 1 0 0 0 0 0]
             [0 0 0 0 0 1 0 0 0 0]
             [1 0 0 0 0 0 0 0 0 0]
             [0 0 1 0 0 0 0 0 0 0]
             [0 0 0 0 0 0 0 0 0 1]
             [0 0 0 0 0 0 1 0 0 0]
             [0 0 0 0 0 0 0 0 1 0]];
x = [[0 3 0 0 0 0 0 0 0 0]
             [0 0 0 0 0 0 0 2 0 0]
             [0 0 0 7 0 0 0 0 0 0]
             [0 0 0 0 6 0 0 0 0 0]
             [0 0 0 0 0 5 0 0 0 0]
             [4 0 0 0 0 0 0 0 0 0]
             [0 0 8 0 0 0 0 0 0 0]
             [0 0 0 0 0 0 0 0 0 1]
             [0 0 0 0 0 0 9 0 0 0]
             [0 0 0 0 0 0 0 0 10 0]];

<<< done, at 0,4s, took 0,000322104s

